\* Problem: steiner *\

Minimize
 obj: + 5.4936318397522 x1i21 + 2.99048519134521 x1i22
 + 2.02078652381897 x1i23 + 2.75527739524841 x1i24
 + 7.28010988235474 x1i25 + 0.144370153546333 x1i26
 + 7.06638097763062 x1i27 + 5.47322225570679 x1i28
 + 5.79621076583862 x1i29 + 6.3737416267395 x1i30
 + 13.1182136535645 x1i31 + 2.63046789169312 x1i32
 + 4.96025276184082 x1i33 + 13.8175287246704 x1i34
 + 8.55271816253662 x1i35 + 6.80911207199097 x1i36
 + 8.81779384613037 x1i37 + 14.261568069458 x1i38
 + 3.39357924461365 x2i21 + 0.0228703562170267 x2i22
 + 1.37391841411591 x2i23 + 2.15417194366455 x2i24
 + 7.07106781005859 x2i25 + 2.96315240859985 x2i26
 + 8.04559326171875 x2i27 + 5.19193267822266 x2i28
 + 8.161696434021 x2i29 + 8.91775608062744 x2i30 + 15.867847442627 x2i31
 + 5.30731010437012 x2i32 + 7.92867803573608 x2i33
 + 16.7039222717285 x2i34 + 10.0025959014893 x2i35
 + 6.12858390808105 x2i36 + 8.02169132232666 x2i37
 + 16.3174018859863 x2i38 + 8.66998195648193 x3i21
 + 8.06426811218262 x3i22 + 7.5641827583313 x3i23
 + 8.41165733337402 x3i24 + 6.70820379257202 x3i25
 + 5.78369522094727 x3i26 + 4.26653385162354 x3i27
 + 10.8955917358398 x3i28 + 0.192047208547592 x3i29
 + 0.983991205692291 x3i30 + 7.98114013671875 x3i31
 + 5.98834228515625 x3i32 + 4.98461484909058 x3i33
 + 9.18388175964355 x3i34 + 12.0582418441772 x3i35
 + 12.2935457229614 x3i36 + 14.2664699554443 x3i37
 + 15.8815202713013 x3i38 + 0.389613896608353 x4i21
 + 3.6281476020813 x4i22 + 4.906907081604 x4i23 + 5.75285005569458 x4i24
 + 5 x4i25 + 5.86958599090576 x4i26 + 7.18309020996094 x4i27
 + 8.63275623321533 x4i28 + 9.08144378662109 x4i29
 + 10.0309743881226 x4i30 + 17.0097599029541 x4i31
 + 8.44315338134766 x4i32 + 10.6213006973267 x4i33
 + 18.2185039520264 x4i34 + 13.6043844223022 x4i35
 + 9.35205268859863 x4i36 + 11.0606641769409 x4i37
 + 19.8407611846924 x4i38 + 8.28073120117188 x5i21
 + 5.36857509613037 x5i22 + 4.05522394180298 x5i23
 + 3.99301075935364 x5i24 + 9.84885787963867 x5i25
 + 2.76160454750061 x5i26 + 9.05916786193848 x5i27
 + 5.0573992729187 x5i28 + 6.50789356231689 x5i29
 + 6.67710304260254 x5i30 + 12.490553855896 x5i31
 + 0.343525111675262 x5i32 + 3.07731413841248 x5i33
 + 12.757420539856 x5i34 + 6.09526920318604 x5i35
 + 6.45907592773438 x5i36 + 8.29088401794434 x5i37
 + 11.45237159729 x5i38 + 6.89802837371826 x6i21
 + 8.07555103302002 x6i22 + 8.28703594207764 x6i23
 + 9.39292907714844 x6i24 + 3 x6i25 + 7.21406269073486 x6i26
 + 0.0336958095431328 x6i27 + 12.4612293243408 x6i28
 + 4.11119890213013 x6i29 + 5.00295495986938 x6i30
 + 10.853985786438 x6i31 + 8.72136878967285 x6i32
 + 8.80611991882324 x6i33 + 12.5140800476074 x6i34
 + 15.1458311080933 x6i35 + 13.7148752212524 x6i36
 + 15.717960357666 x6i37 + 19.7629947662354 x6i38
 + 5.62900495529175 x7i21 + 2.21320867538452 x7i22
 + 1.23163974285126 x7i23 + 0.0966401323676109 x7i24 + 9 x7i25
 + 2.70290565490723 x7i26 + 9.47623157501221 x7i27
 + 3.09471917152405 x7i28 + 8.62413215637207 x7i29
 + 9.18981838226318 x7i30 + 15.8203029632568 x7i31
 + 4.05572652816772 x7i32 + 6.96297073364258 x7i33
 + 16.3772506713867 x7i34 + 7.81171464920044 x7i35
 + 4.24032735824585 x7i36 + 6.23411130905151 x7i37
 + 14.2470054626465 x7i38 + 10.4048099517822 x8i21
 + 8.05019283294678 x8i22 + 6.86965131759644 x8i23
 + 7.05001020431519 x8i24 + 10.6301460266113 x8i25
 + 5.11316061019897 x8i26 + 8.95939159393311 x8i27
 + 8.10966873168945 x8i28 + 5.28690814971924 x8i29
 + 4.97343826293945 x8i30 + 9.58032703399658 x8i31
 + 3.03113460540771 x8i32 + 0.154536575078964 x8i33
 + 9.66309452056885 x8i34 + 7.29932022094727 x8i35
 + 9.47529029846191 x8i36 + 11.1857376098633 x8i37
 + 10.8376302719116 x8i38 + 18.6381511688232 x9i21
 + 17.4596862792969 x9i22 + 16.5691471099854 x9i23
 + 17.0467872619629 x9i24 + 16.2788200378418 x9i25
 + 14.6373844146729 x9i26 + 13.3744993209839 x9i27
 + 18.404182434082 x9i28 + 9.99897193908691 x9i29
 + 9.01640701293945 x9i30 + 2.83345127105713 x9i31
 + 13.2300024032593 x9i32 + 10.3592290878296 x9i33
 + 0.82904189825058 x9i34 + 16.3010654449463 x9i35
 + 19.7605533599854 x9i36 + 21.4060440063477 x9i37
 + 15.8956537246704 x9i38 + 13.3654804229736 x10i21
 + 9.97763729095459 x10i22 + 8.71026611328125 x10i23
 + 7.87930107116699 x10i24 + 15.8113880157471 x10i25
 + 8.42866325378418 x10i26 + 15.1372365951538 x10i27
 + 5.78278970718384 x10i28 + 12.2332029342651 x10i29
 + 12.1366128921509 x10i30 + 16.3287544250488 x10i31
 + 6.41307973861694 x10i32 + 7.33713245391846 x10i33
 + 15.8449659347534 x10i34 + 0.0222998708486557 x10i35
 + 6.25399971008301 x10i36 + 6.73433685302734 x10i37
 + 6.72500324249268 x10i38 + 14.0794534683228 x11i21
 + 10.9792404174805 x11i22 + 10.2870235443115 x11i23
 + 9.15199279785156 x11i24 + 18.0277557373047 x11i25
 + 11.2574005126953 x11i26 + 18.4318084716797 x11i27
 + 5.98935222625732 x11i28 + 16.7283554077148 x11i29
 + 16.9688377380371 x11i30 + 22.3522033691406 x11i31
 + 10.6146173477173 x11i32 + 12.8027973175049 x11i33
 + 22.1606674194336 x11i34 + 6.68687295913696 x11i35
 + 4.87161159515381 x11i36 + 3.10021305084229 x11i37
 + 11.9778203964233 x11i38 + 19.5162868499756 x12i21
 + 16.2577247619629 x12i22 + 14.9200048446655 x12i23
 + 14.2675628662109 x12i24 + 21.0950222015381 x12i25
 + 14.1312189102173 x12i26 + 19.71142578125 x12i27
 + 12.484884262085 x12i28 + 15.9927778244019 x12i29
 + 15.5027179718018 x12i30 + 16.9946098327637 x12i31
 + 11.648063659668 x12i32 + 10.9028587341309 x12i33
 + 15.7069253921509 x12i34 + 6.71584320068359 x12i35
 + 12.9209308624268 x12i36 + 13.0856847763062 x12i37
 + 0.0843808278441429 x12i38 + 10.7950525283813 x13i21
 + 9.04817581176758 x13i22 + 8.0639181137085 x13i23
 + 8.50300884246826 x13i24 + 10 x13i25 + 6.14649200439453 x13i26
 + 7.83186388015747 x13i27 + 10.0571165084839 x13i28
 + 3.76530885696411 x13i29 + 3.14232087135315 x13i30
 + 7.49367904663086 x13i31 + 4.76874685287476 x13i32
 + 2.21320962905884 x13i33 + 7.83905696868896 x13i34
 + 9.50651454925537 x13i35 + 11.4555635452271 x13i36
 + 13.2492046356201 x13i37 + 12.4428491592407 x13i38
 + 9.13020992279053 x14i21 + 5.97924375534058 x14i22
 + 5.34598731994629 x14i23 + 4.21853160858154 x14i24
 + 13.0384044647217 x14i25 + 6.56627607345581 x14i26
 + 13.5915994644165 x14i27 + 1.34890079498291 x14i28
 + 12.3659858703613 x14i29 + 12.7752618789673 x14i30
 + 18.8936462402344 x14i31 + 6.65280771255493 x14i32
 + 9.37981128692627 x14i33 + 19.0970630645752 x14i34
 + 6.31409120559692 x14i35 + 0.132565900683403 x14i36
 + 2.11929631233215 x14i37 + 13.0108242034912 x14i38
 + 17.0884780883789 x15i21 + 16.5530548095703 x15i22
 + 15.8973808288574 x15i23 + 16.5845642089844 x15i24 + 14 x15i25
 + 13.9973134994507 x15i26 + 11.0336961746216 x15i27
 + 18.5008716583252 x15i28 + 8.47577667236328 x15i29
 + 7.64131259918213 x15i30 + 1.25372469425201 x15i31
 + 13.1966762542725 x15i32 + 10.6424493789673 x15i33
 + 3.09518694877625 x15i34 + 17.5143413543701 x15i35
 + 19.9093151092529 x15i36 + 21.7303810119629 x15i37
 + 18.3322124481201 x15i38 + 17.6397113800049 x16i21
 + 16.4881725311279 x16i22 + 15.6142444610596 x16i23
 + 16.1123962402344 x16i24 + 15.2970581054688 x16i25
 + 13.6811122894287 x16i26 + 12.4020090103149 x16i27
 + 17.5417766571045 x16i28 + 8.99917697906494 x16i29
 + 8.01641273498535 x16i30 + 2.14370274543762 x16i31
 + 12.3335199356079 x16i32 + 9.49035835266113 x16i33
 + 0.230105087161064 x16i34 + 15.6426467895508 x16i35
 + 18.9088516235352 x16i36 + 20.5851898193359 x16i37
 + 15.6085519790649 x16i38 + 11.0039825439453 x17i21
 + 8.0428524017334 x17i22 + 7.53292179107666 x17i23
 + 6.41852712631226 x17i24 + 15.1327457427979 x17i25
 + 8.80233097076416 x17i26 + 15.8007650375366 x17i27
 + 3.5271315574646 x17i28 + 14.5839443206787 x17i29
 + 14.9689083099365 x17i30 + 20.9427146911621 x17i31
 + 8.75823497772217 x17i32 + 11.3625020980835 x17i33
 + 21.0385932922363 x17i34 + 6.98383855819702 x17i35
 + 2.13746643066406 x17i36 + 0.265944540500641 x17i37
 + 13.3383388519287 x17i38 + 20.9303779602051 x18i21
 + 17.6706790924072 x18i22 + 16.3336219787598 x18i23
 + 15.6760854721069 x18i24 + 22.472204208374 x18i25
 + 15.5400819778442 x18i26 + 21.0382423400879 x18i27
 + 13.8449592590332 x18i28 + 17.2669410705566 x18i29
 + 16.7425746917725 x18i30 + 17.8544101715088 x18i31
 + 13.0490112304688 x18i32 + 12.2190504074097 x18i33
 + 16.4505729675293 x18i34 + 8.06871891021729 x18i35
 + 14.2347555160522 x18i36 + 14.3083114624023 x18i37
 + 1.37453901767731 x18i38 + 9.66383838653564 x19i21
 + 8.94501209259033 x19i22 + 8.3635425567627 x19i23
 + 9.15093898773193 x19i24 + 7.61577320098877 x19i25
 + 6.52160406112671 x19i26 + 5.02699756622314 x19i27
 + 11.4766683578491 x19i28 + 1.01545011997223 x19i29
 + 0.0312228184193373 x19i30 + 7.00939273834229 x19i31
 + 6.38572788238525 x19i32 + 4.9084734916687 x19i33
 + 8.18401145935059 x19i34 + 12.1833305358887 x19i35
 + 12.8866634368896 x19i36 + 14.8324251174927 x19i37
 + 15.597038269043 x19i38 + 4.78739833831787 x20i21
 + 7.09027814865112 x20i22 + 7.77682733535767 x20i23
 + 8.90370845794678 x20i24 + 7.40284633636475 x20i26
 + 2.96630430221558 x20i27 + 12.0947189331055 x20i28
 + 6.62715530395508 x20i29 + 7.61126470565796 x20i30
 + 13.8387155532837 x20i31 + 9.55565071105957 x20i32
 + 10.4789113998413 x20i33 + 15.4498901367188 x20i34
 + 15.8208446502686 x20i35 + 13.1640930175781 x20i36
 + 15.0880193710327 x20i37 + 21.1528072357178 x20i38
 + 3.41640591621399 x21i22 + 4.65734148025513 x21i23
 + 5.54771423339844 x21i24 + 4.78739833831787 x21i25
 + 5.53711605072021 x21i26 + 6.87064933776855 x21i27
 + 8.4929313659668 x21i28 + 8.69735336303711 x21i29
 + 9.64480590820312 x21i30 + 16.6278247833252 x21i31
 + 8.11381530761719 x21i32 + 10.2552709579468 x21i33
 + 17.8307189941406 x21i34 + 13.3689022064209 x21i35
 + 9.2624454498291 x21i36 + 11.0099649429321 x21i37
 + 19.5590553283691 x21i38 + 1.3543336391449 x22i23
 + 2.13133597373962 x22i24 + 7.09027814865112 x22i25
 + 2.95267391204834 x22i26 + 8.0589542388916 x22i27
 + 5.16971349716187 x22i28 + 8.1641674041748 x22i29
 + 8.91845512390137 x22i30 + 15.86647605896 x22i31
 + 5.29173994064331 x22i32 + 7.91680288314819 x22i33
 + 16.6997966766357 x22i34 + 9.98022270202637 x22i35
 + 6.10777711868286 x22i36 + 8.0019006729126 x22i37
 + 16.2962646484375 x22i38 + 1.13503134250641 x23i24
 + 7.77682733535767 x23i25 + 1.93381237983704 x23i26
 + 8.2754430770874 x23i27 + 4.32112503051758 x23i28
 + 7.68905305862427 x23i29 + 8.33493232727051 x23i30
 + 15.1357374191284 x23i31 + 4.00594758987427 x23i32
 + 6.74390316009521 x23i33 + 15.8312292098999 x23i34
 + 8.71398544311523 x23i35 + 5.46496725082397 x23i36
 + 7.45040225982666 x23i37 + 14.9595756530762 x23i38
 + 8.90370845794678 x24i25 + 2.63146686553955 x24i26
 + 9.38224983215332 x24i27 + 3.1910252571106 x24i28
 + 8.54953861236572 x24i29 + 9.12128448486328 x24i30
 + 15.7661390304565 x24i31 + 4.04063129425049 x24i32
 + 6.94043874740601 x24i33 + 16.3338203430176 x24i34
 + 7.88095712661743 x24i35 + 4.33596611022949 x24i36
 + 6.32890176773071 x24i37 + 14.3023271560669 x24i38
 + 7.40284633636475 x25i26 + 2.96630430221558 x25i27
 + 12.0947189331055 x25i28 + 6.62715530395508 x25i29
 + 7.61126470565796 x25i30 + 13.8387155532837 x25i31
 + 9.55565071105957 x25i32 + 10.4789113998413 x25i33
 + 15.4498901367188 x25i34 + 15.8208446502686 x25i35
 + 13.1640930175781 x25i36 + 15.0880193710327 x25i37
 + 21.1528072357178 x25i38 + 7.20928192138672 x26i27
 + 5.3294882774353 x26i28 + 5.92458295822144 x26i29
 + 6.49208879470825 x26i30 + 13.215612411499 x26i31
 + 2.57754373550415 x26i32 + 4.97638845443726 x26i33
 + 13.8978548049927 x26i34 + 8.43716716766357 x26i35
 + 6.6668553352356 x26i36 + 8.67520332336426 x26i37
 + 14.1795387268066 x26i38 + 12.4531602859497 x27i28
 + 4.13587474822998 x27i29 + 5.02982711791992 x27i30
 + 10.8874626159668 x27i31 + 8.72545623779297 x27i32
 + 8.82100582122803 x27i33 + 12.5468854904175 x27i34
 + 15.1502819061279 x27i35 + 13.7051649093628 x27i36
 + 15.7078437805176 x27i37 + 19.7766208648682 x27i38
 + 11.0579423904419 x28i29 + 11.4456148147583 x28i30
 + 17.5476760864258 x28i31 + 5.3044285774231 x28i32
 + 8.05144596099854 x28i33 + 17.7705688476562 x28i34
 + 5.77655172348022 x28i35 + 1.41583228111267 x28i36
 + 3.37327980995178 x28i37 + 12.5038423538208 x28i38
 + 1.00482976436615 x29i30 + 7.93806600570679 x29i31
 + 6.17103815078735 x29i32 + 5.17327213287354 x29i33
 + 9.18009567260742 x29i34 + 12.2498340606689 x29i35
 + 12.45383644104 x29i36 + 14.4297428131104 x29i37
 + 16.0630931854248 x29i38 + 7.0319619178772 x30i31
 + 6.3545823097229 x30i32 + 4.88150691986084 x30i33
 + 8.20087432861328 x30i34 + 12.1544055938721 x30i35
 + 12.8556461334229 x30i36 + 14.8012971878052 x30i37
 + 15.5755195617676 x30i38 + 12.2485256195068 x31i32
 + 9.60316944122314 x31i33 + 2.14474105834961 x31i34
 + 16.3503952026367 x31i35 + 18.9485473632812 x31i36
 + 20.7352695465088 x31i37 + 17.0785293579102 x31i38
 + 2.93331909179688 x32i33 + 12.5601377487183 x32i34
 + 6.42586231231689 x32i35 + 6.71300649642944 x32i36
 + 8.56827163696289 x32i37 + 11.700065612793 x32i38
 + 9.71912479400635 x33i34 + 7.356116771698 x33i35
 + 9.42305374145508 x33i36 + 11.1485643386841 x33i37
 + 10.9697828292847 x33i38 + 15.8671216964722 x34i35
 + 19.138090133667 x34i36 + 20.815185546875 x34i37
 + 15.7913064956665 x34i38 + 6.24318552017212 x35i36
 + 6.71820306777954 x35i37 + 6.7323842048645 x35i38
 + 2.01145315170288 x36i37 + 12.9310693740845 x36i38
 + 13.0828247070312 x37i38

Subject To
 p1: + x1i38 + x1i37 + x1i36 + x1i35 + x1i34 + x1i33 + x1i32 + x1i31
 + x1i30 + x1i29 + x1i28 + x1i27 + x1i26 + x1i25 + x1i24 + x1i23 + x1i22
 + x1i21 = 1
 p2: + x2i38 + x2i37 + x2i36 + x2i35 + x2i34 + x2i33 + x2i32 + x2i31
 + x2i30 + x2i29 + x2i28 + x2i27 + x2i26 + x2i25 + x2i24 + x2i23 + x2i22
 + x2i21 = 1
 p3: + x3i38 + x3i37 + x3i36 + x3i35 + x3i34 + x3i33 + x3i32 + x3i31
 + x3i30 + x3i29 + x3i28 + x3i27 + x3i26 + x3i25 + x3i24 + x3i23 + x3i22
 + x3i21 = 1
 p4: + x4i38 + x4i37 + x4i36 + x4i35 + x4i34 + x4i33 + x4i32 + x4i31
 + x4i30 + x4i29 + x4i28 + x4i27 + x4i26 + x4i25 + x4i24 + x4i23 + x4i22
 + x4i21 = 1
 p5: + x5i38 + x5i37 + x5i36 + x5i35 + x5i34 + x5i33 + x5i32 + x5i31
 + x5i30 + x5i29 + x5i28 + x5i27 + x5i26 + x5i25 + x5i24 + x5i23 + x5i22
 + x5i21 = 1
 p6: + x6i38 + x6i37 + x6i36 + x6i35 + x6i34 + x6i33 + x6i32 + x6i31
 + x6i30 + x6i29 + x6i28 + x6i27 + x6i26 + x6i25 + x6i24 + x6i23 + x6i22
 + x6i21 = 1
 p7: + x7i38 + x7i37 + x7i36 + x7i35 + x7i34 + x7i33 + x7i32 + x7i31
 + x7i30 + x7i29 + x7i28 + x7i27 + x7i26 + x7i25 + x7i24 + x7i23 + x7i22
 + x7i21 = 1
 p8: + x8i38 + x8i37 + x8i36 + x8i35 + x8i34 + x8i33 + x8i32 + x8i31
 + x8i30 + x8i29 + x8i28 + x8i27 + x8i26 + x8i25 + x8i24 + x8i23 + x8i22
 + x8i21 = 1
 p9: + x9i38 + x9i37 + x9i36 + x9i35 + x9i34 + x9i33 + x9i32 + x9i31
 + x9i30 + x9i29 + x9i28 + x9i27 + x9i26 + x9i25 + x9i24 + x9i23 + x9i22
 + x9i21 = 1
 p10: + x10i38 + x10i37 + x10i36 + x10i35 + x10i34 + x10i33 + x10i32
 + x10i31 + x10i30 + x10i29 + x10i28 + x10i27 + x10i26 + x10i25 + x10i24
 + x10i23 + x10i22 + x10i21 = 1
 p11: + x11i38 + x11i37 + x11i36 + x11i35 + x11i34 + x11i33 + x11i32
 + x11i31 + x11i30 + x11i29 + x11i28 + x11i27 + x11i26 + x11i25 + x11i24
 + x11i23 + x11i22 + x11i21 = 1
 p12: + x12i38 + x12i37 + x12i36 + x12i35 + x12i34 + x12i33 + x12i32
 + x12i31 + x12i30 + x12i29 + x12i28 + x12i27 + x12i26 + x12i25 + x12i24
 + x12i23 + x12i22 + x12i21 = 1
 p13: + x13i38 + x13i37 + x13i36 + x13i35 + x13i34 + x13i33 + x13i32
 + x13i31 + x13i30 + x13i29 + x13i28 + x13i27 + x13i26 + x13i25 + x13i24
 + x13i23 + x13i22 + x13i21 = 1
 p14: + x14i38 + x14i37 + x14i36 + x14i35 + x14i34 + x14i33 + x14i32
 + x14i31 + x14i30 + x14i29 + x14i28 + x14i27 + x14i26 + x14i25 + x14i24
 + x14i23 + x14i22 + x14i21 = 1
 p15: + x15i38 + x15i37 + x15i36 + x15i35 + x15i34 + x15i33 + x15i32
 + x15i31 + x15i30 + x15i29 + x15i28 + x15i27 + x15i26 + x15i25 + x15i24
 + x15i23 + x15i22 + x15i21 = 1
 p16: + x16i38 + x16i37 + x16i36 + x16i35 + x16i34 + x16i33 + x16i32
 + x16i31 + x16i30 + x16i29 + x16i28 + x16i27 + x16i26 + x16i25 + x16i24
 + x16i23 + x16i22 + x16i21 = 1
 p17: + x17i38 + x17i37 + x17i36 + x17i35 + x17i34 + x17i33 + x17i32
 + x17i31 + x17i30 + x17i29 + x17i28 + x17i27 + x17i26 + x17i25 + x17i24
 + x17i23 + x17i22 + x17i21 = 1
 p18: + x18i38 + x18i37 + x18i36 + x18i35 + x18i34 + x18i33 + x18i32
 + x18i31 + x18i30 + x18i29 + x18i28 + x18i27 + x18i26 + x18i25 + x18i24
 + x18i23 + x18i22 + x18i21 = 1
 p19: + x19i38 + x19i37 + x19i36 + x19i35 + x19i34 + x19i33 + x19i32
 + x19i31 + x19i30 + x19i29 + x19i28 + x19i27 + x19i26 + x19i25 + x19i24
 + x19i23 + x19i22 + x19i21 = 1
 p20: + x20i38 + x20i37 + x20i36 + x20i35 + x20i34 + x20i33 + x20i32
 + x20i31 + x20i30 + x20i29 + x20i28 + x20i27 + x20i26 + x20i25 + x20i24
 + x20i23 + x20i22 + x20i21 = 1
 q21: + x21i22 = 1
 q22: + x22i23 + x21i23 = 1
 q23: + x23i24 + x22i24 + x21i24 = 1
 q24: + x24i25 + x23i25 + x22i25 + x21i25 = 1
 q25: + x25i26 + x24i26 + x23i26 + x22i26 + x21i26 = 1
 q26: + x26i27 + x25i27 + x24i27 + x23i27 + x22i27 + x21i27 = 1
 q27: + x27i28 + x26i28 + x25i28 + x24i28 + x23i28 + x22i28 + x21i28 = 1
 q28: + x28i29 + x27i29 + x26i29 + x25i29 + x24i29 + x23i29 + x22i29
 + x21i29 = 1
 q29: + x29i30 + x28i30 + x27i30 + x26i30 + x25i30 + x24i30 + x23i30
 + x22i30 + x21i30 = 1
 q30: + x30i31 + x29i31 + x28i31 + x27i31 + x26i31 + x25i31 + x24i31
 + x23i31 + x22i31 + x21i31 = 1
 q31: + x31i32 + x30i32 + x29i32 + x28i32 + x27i32 + x26i32 + x25i32
 + x24i32 + x23i32 + x22i32 + x21i32 = 1
 q32: + x32i33 + x31i33 + x30i33 + x29i33 + x28i33 + x27i33 + x26i33
 + x25i33 + x24i33 + x23i33 + x22i33 + x21i33 = 1
 q33: + x33i34 + x32i34 + x31i34 + x30i34 + x29i34 + x28i34 + x27i34
 + x26i34 + x25i34 + x24i34 + x23i34 + x22i34 + x21i34 = 1
 q34: + x34i35 + x33i35 + x32i35 + x31i35 + x30i35 + x29i35 + x28i35
 + x27i35 + x26i35 + x25i35 + x24i35 + x23i35 + x22i35 + x21i35 = 1
 q35: + x35i36 + x34i36 + x33i36 + x32i36 + x31i36 + x30i36 + x29i36
 + x28i36 + x27i36 + x26i36 + x25i36 + x24i36 + x23i36 + x22i36 + x21i36
 = 1
 q36: + x36i37 + x35i37 + x34i37 + x33i37 + x32i37 + x31i37 + x30i37
 + x29i37 + x28i37 + x27i37 + x26i37 + x25i37 + x24i37 + x23i37 + x22i37
 + x21i37 = 1
 q37: + x37i38 + x36i38 + x35i38 + x34i38 + x33i38 + x32i38 + x31i38
 + x30i38 + x29i38 + x28i38 + x27i38 + x26i38 + x25i38 + x24i38 + x23i38
 + x22i38 + x21i38 = 1
 k38: + x21i38 + x21i37 + x21i36 + x21i35 + x21i34 + x21i33 + x21i32
 + x21i31 + x21i30 + x21i29 + x21i28 + x21i27 + x21i26 + x21i25 + x21i24
 + x21i23 + x21i22 + x20i21 + x19i21 + x18i21 + x17i21 + x16i21 + x15i21
 + x14i21 + x13i21 + x12i21 + x11i21 + x10i21 + x9i21 + x8i21 + x7i21
 + x6i21 + x5i21 + x4i21 + x3i21 + x2i21 + x1i21 = 3
 k39: + x22i38 + x22i37 + x22i36 + x22i35 + x22i34 + x22i33 + x22i32
 + x22i31 + x22i30 + x22i29 + x22i28 + x22i27 + x22i26 + x22i25 + x22i24
 + x22i23 + x21i22 + x20i22 + x19i22 + x18i22 + x17i22 + x16i22 + x15i22
 + x14i22 + x13i22 + x12i22 + x11i22 + x10i22 + x9i22 + x8i22 + x7i22
 + x6i22 + x5i22 + x4i22 + x3i22 + x2i22 + x1i22 = 3
 k40: + x23i38 + x23i37 + x23i36 + x23i35 + x23i34 + x23i33 + x23i32
 + x23i31 + x23i30 + x23i29 + x23i28 + x23i27 + x23i26 + x23i25 + x23i24
 + x22i23 + x21i23 + x20i23 + x19i23 + x18i23 + x17i23 + x16i23 + x15i23
 + x14i23 + x13i23 + x12i23 + x11i23 + x10i23 + x9i23 + x8i23 + x7i23
 + x6i23 + x5i23 + x4i23 + x3i23 + x2i23 + x1i23 = 3
 k41: + x24i38 + x24i37 + x24i36 + x24i35 + x24i34 + x24i33 + x24i32
 + x24i31 + x24i30 + x24i29 + x24i28 + x24i27 + x24i26 + x24i25 + x23i24
 + x22i24 + x21i24 + x20i24 + x19i24 + x18i24 + x17i24 + x16i24 + x15i24
 + x14i24 + x13i24 + x12i24 + x11i24 + x10i24 + x9i24 + x8i24 + x7i24
 + x6i24 + x5i24 + x4i24 + x3i24 + x2i24 + x1i24 = 3
 k42: + x25i38 + x25i37 + x25i36 + x25i35 + x25i34 + x25i33 + x25i32
 + x25i31 + x25i30 + x25i29 + x25i28 + x25i27 + x25i26 + x24i25 + x23i25
 + x22i25 + x21i25 + x20i25 + x19i25 + x18i25 + x17i25 + x16i25 + x15i25
 + x14i25 + x13i25 + x12i25 + x11i25 + x10i25 + x9i25 + x8i25 + x7i25
 + x6i25 + x5i25 + x4i25 + x3i25 + x2i25 + x1i25 = 3
 k43: + x26i38 + x26i37 + x26i36 + x26i35 + x26i34 + x26i33 + x26i32
 + x26i31 + x26i30 + x26i29 + x26i28 + x26i27 + x25i26 + x24i26 + x23i26
 + x22i26 + x21i26 + x20i26 + x19i26 + x18i26 + x17i26 + x16i26 + x15i26
 + x14i26 + x13i26 + x12i26 + x11i26 + x10i26 + x9i26 + x8i26 + x7i26
 + x6i26 + x5i26 + x4i26 + x3i26 + x2i26 + x1i26 = 3
 k44: + x27i38 + x27i37 + x27i36 + x27i35 + x27i34 + x27i33 + x27i32
 + x27i31 + x27i30 + x27i29 + x27i28 + x26i27 + x25i27 + x24i27 + x23i27
 + x22i27 + x21i27 + x20i27 + x19i27 + x18i27 + x17i27 + x16i27 + x15i27
 + x14i27 + x13i27 + x12i27 + x11i27 + x10i27 + x9i27 + x8i27 + x7i27
 + x6i27 + x5i27 + x4i27 + x3i27 + x2i27 + x1i27 = 3
 k45: + x28i38 + x28i37 + x28i36 + x28i35 + x28i34 + x28i33 + x28i32
 + x28i31 + x28i30 + x28i29 + x27i28 + x26i28 + x25i28 + x24i28 + x23i28
 + x22i28 + x21i28 + x20i28 + x19i28 + x18i28 + x17i28 + x16i28 + x15i28
 + x14i28 + x13i28 + x12i28 + x11i28 + x10i28 + x9i28 + x8i28 + x7i28
 + x6i28 + x5i28 + x4i28 + x3i28 + x2i28 + x1i28 = 3
 k46: + x29i38 + x29i37 + x29i36 + x29i35 + x29i34 + x29i33 + x29i32
 + x29i31 + x29i30 + x28i29 + x27i29 + x26i29 + x25i29 + x24i29 + x23i29
 + x22i29 + x21i29 + x20i29 + x19i29 + x18i29 + x17i29 + x16i29 + x15i29
 + x14i29 + x13i29 + x12i29 + x11i29 + x10i29 + x9i29 + x8i29 + x7i29
 + x6i29 + x5i29 + x4i29 + x3i29 + x2i29 + x1i29 = 3
 k47: + x30i38 + x30i37 + x30i36 + x30i35 + x30i34 + x30i33 + x30i32
 + x30i31 + x29i30 + x28i30 + x27i30 + x26i30 + x25i30 + x24i30 + x23i30
 + x22i30 + x21i30 + x20i30 + x19i30 + x18i30 + x17i30 + x16i30 + x15i30
 + x14i30 + x13i30 + x12i30 + x11i30 + x10i30 + x9i30 + x8i30 + x7i30
 + x6i30 + x5i30 + x4i30 + x3i30 + x2i30 + x1i30 = 3
 k48: + x31i38 + x31i37 + x31i36 + x31i35 + x31i34 + x31i33 + x31i32
 + x30i31 + x29i31 + x28i31 + x27i31 + x26i31 + x25i31 + x24i31 + x23i31
 + x22i31 + x21i31 + x20i31 + x19i31 + x18i31 + x17i31 + x16i31 + x15i31
 + x14i31 + x13i31 + x12i31 + x11i31 + x10i31 + x9i31 + x8i31 + x7i31
 + x6i31 + x5i31 + x4i31 + x3i31 + x2i31 + x1i31 = 3
 k49: + x32i38 + x32i37 + x32i36 + x32i35 + x32i34 + x32i33 + x31i32
 + x30i32 + x29i32 + x28i32 + x27i32 + x26i32 + x25i32 + x24i32 + x23i32
 + x22i32 + x21i32 + x20i32 + x19i32 + x18i32 + x17i32 + x16i32 + x15i32
 + x14i32 + x13i32 + x12i32 + x11i32 + x10i32 + x9i32 + x8i32 + x7i32
 + x6i32 + x5i32 + x4i32 + x3i32 + x2i32 + x1i32 = 3
 k50: + x33i38 + x33i37 + x33i36 + x33i35 + x33i34 + x32i33 + x31i33
 + x30i33 + x29i33 + x28i33 + x27i33 + x26i33 + x25i33 + x24i33 + x23i33
 + x22i33 + x21i33 + x20i33 + x19i33 + x18i33 + x17i33 + x16i33 + x15i33
 + x14i33 + x13i33 + x12i33 + x11i33 + x10i33 + x9i33 + x8i33 + x7i33
 + x6i33 + x5i33 + x4i33 + x3i33 + x2i33 + x1i33 = 3
 k51: + x34i38 + x34i37 + x34i36 + x34i35 + x33i34 + x32i34 + x31i34
 + x30i34 + x29i34 + x28i34 + x27i34 + x26i34 + x25i34 + x24i34 + x23i34
 + x22i34 + x21i34 + x20i34 + x19i34 + x18i34 + x17i34 + x16i34 + x15i34
 + x14i34 + x13i34 + x12i34 + x11i34 + x10i34 + x9i34 + x8i34 + x7i34
 + x6i34 + x5i34 + x4i34 + x3i34 + x2i34 + x1i34 = 3
 k52: + x35i38 + x35i37 + x35i36 + x34i35 + x33i35 + x32i35 + x31i35
 + x30i35 + x29i35 + x28i35 + x27i35 + x26i35 + x25i35 + x24i35 + x23i35
 + x22i35 + x21i35 + x20i35 + x19i35 + x18i35 + x17i35 + x16i35 + x15i35
 + x14i35 + x13i35 + x12i35 + x11i35 + x10i35 + x9i35 + x8i35 + x7i35
 + x6i35 + x5i35 + x4i35 + x3i35 + x2i35 + x1i35 = 3
 k53: + x36i38 + x36i37 + x35i36 + x34i36 + x33i36 + x32i36 + x31i36
 + x30i36 + x29i36 + x28i36 + x27i36 + x26i36 + x25i36 + x24i36 + x23i36
 + x22i36 + x21i36 + x20i36 + x19i36 + x18i36 + x17i36 + x16i36 + x15i36
 + x14i36 + x13i36 + x12i36 + x11i36 + x10i36 + x9i36 + x8i36 + x7i36
 + x6i36 + x5i36 + x4i36 + x3i36 + x2i36 + x1i36 = 3
 k54: + x37i38 + x36i37 + x35i37 + x34i37 + x33i37 + x32i37 + x31i37
 + x30i37 + x29i37 + x28i37 + x27i37 + x26i37 + x25i37 + x24i37 + x23i37
 + x22i37 + x21i37 + x20i37 + x19i37 + x18i37 + x17i37 + x16i37 + x15i37
 + x14i37 + x13i37 + x12i37 + x11i37 + x10i37 + x9i37 + x8i37 + x7i37
 + x6i37 + x5i37 + x4i37 + x3i37 + x2i37 + x1i37 = 3
 k55: + x37i38 + x36i38 + x35i38 + x34i38 + x33i38 + x32i38 + x31i38
 + x30i38 + x29i38 + x28i38 + x27i38 + x26i38 + x25i38 + x24i38 + x23i38
 + x22i38 + x21i38 + x20i38 + x19i38 + x18i38 + x17i38 + x16i38 + x15i38
 + x14i38 + x13i38 + x12i38 + x11i38 + x10i38 + x9i38 + x8i38 + x7i38
 + x6i38 + x5i38 + x4i38 + x3i38 + x2i38 + x1i38 = 3

Bounds
 0 <= x1i21 <= 1
 0 <= x1i22 <= 1
 0 <= x1i23 <= 1
 0 <= x1i24 <= 1
 0 <= x1i25 <= 1
 0 <= x1i26 <= 1
 0 <= x1i27 <= 1
 0 <= x1i28 <= 1
 0 <= x1i29 <= 1
 0 <= x1i30 <= 1
 0 <= x1i31 <= 1
 0 <= x1i32 <= 1
 0 <= x1i33 <= 1
 0 <= x1i34 <= 1
 0 <= x1i35 <= 1
 0 <= x1i36 <= 1
 0 <= x1i37 <= 1
 0 <= x1i38 <= 1
 0 <= x2i21 <= 1
 0 <= x2i22 <= 1
 0 <= x2i23 <= 1
 0 <= x2i24 <= 1
 0 <= x2i25 <= 1
 0 <= x2i26 <= 1
 0 <= x2i27 <= 1
 0 <= x2i28 <= 1
 0 <= x2i29 <= 1
 0 <= x2i30 <= 1
 0 <= x2i31 <= 1
 0 <= x2i32 <= 1
 0 <= x2i33 <= 1
 0 <= x2i34 <= 1
 0 <= x2i35 <= 1
 0 <= x2i36 <= 1
 0 <= x2i37 <= 1
 0 <= x2i38 <= 1
 0 <= x3i21 <= 1
 0 <= x3i22 <= 1
 0 <= x3i23 <= 1
 0 <= x3i24 <= 1
 0 <= x3i25 <= 1
 0 <= x3i26 <= 1
 0 <= x3i27 <= 1
 0 <= x3i28 <= 1
 0 <= x3i29 <= 1
 0 <= x3i30 <= 1
 0 <= x3i31 <= 1
 0 <= x3i32 <= 1
 0 <= x3i33 <= 1
 0 <= x3i34 <= 1
 0 <= x3i35 <= 1
 0 <= x3i36 <= 1
 0 <= x3i37 <= 1
 0 <= x3i38 <= 1
 0 <= x4i21 <= 1
 0 <= x4i22 <= 1
 0 <= x4i23 <= 1
 0 <= x4i24 <= 1
 0 <= x4i25 <= 1
 0 <= x4i26 <= 1
 0 <= x4i27 <= 1
 0 <= x4i28 <= 1
 0 <= x4i29 <= 1
 0 <= x4i30 <= 1
 0 <= x4i31 <= 1
 0 <= x4i32 <= 1
 0 <= x4i33 <= 1
 0 <= x4i34 <= 1
 0 <= x4i35 <= 1
 0 <= x4i36 <= 1
 0 <= x4i37 <= 1
 0 <= x4i38 <= 1
 0 <= x5i21 <= 1
 0 <= x5i22 <= 1
 0 <= x5i23 <= 1
 0 <= x5i24 <= 1
 0 <= x5i25 <= 1
 0 <= x5i26 <= 1
 0 <= x5i27 <= 1
 0 <= x5i28 <= 1
 0 <= x5i29 <= 1
 0 <= x5i30 <= 1
 0 <= x5i31 <= 1
 0 <= x5i32 <= 1
 0 <= x5i33 <= 1
 0 <= x5i34 <= 1
 0 <= x5i35 <= 1
 0 <= x5i36 <= 1
 0 <= x5i37 <= 1
 0 <= x5i38 <= 1
 0 <= x6i21 <= 1
 0 <= x6i22 <= 1
 0 <= x6i23 <= 1
 0 <= x6i24 <= 1
 0 <= x6i25 <= 1
 0 <= x6i26 <= 1
 0 <= x6i27 <= 1
 0 <= x6i28 <= 1
 0 <= x6i29 <= 1
 0 <= x6i30 <= 1
 0 <= x6i31 <= 1
 0 <= x6i32 <= 1
 0 <= x6i33 <= 1
 0 <= x6i34 <= 1
 0 <= x6i35 <= 1
 0 <= x6i36 <= 1
 0 <= x6i37 <= 1
 0 <= x6i38 <= 1
 0 <= x7i21 <= 1
 0 <= x7i22 <= 1
 0 <= x7i23 <= 1
 0 <= x7i24 <= 1
 0 <= x7i25 <= 1
 0 <= x7i26 <= 1
 0 <= x7i27 <= 1
 0 <= x7i28 <= 1
 0 <= x7i29 <= 1
 0 <= x7i30 <= 1
 0 <= x7i31 <= 1
 0 <= x7i32 <= 1
 0 <= x7i33 <= 1
 0 <= x7i34 <= 1
 0 <= x7i35 <= 1
 0 <= x7i36 <= 1
 0 <= x7i37 <= 1
 0 <= x7i38 <= 1
 0 <= x8i21 <= 1
 0 <= x8i22 <= 1
 0 <= x8i23 <= 1
 0 <= x8i24 <= 1
 0 <= x8i25 <= 1
 0 <= x8i26 <= 1
 0 <= x8i27 <= 1
 0 <= x8i28 <= 1
 0 <= x8i29 <= 1
 0 <= x8i30 <= 1
 0 <= x8i31 <= 1
 0 <= x8i32 <= 1
 0 <= x8i33 <= 1
 0 <= x8i34 <= 1
 0 <= x8i35 <= 1
 0 <= x8i36 <= 1
 0 <= x8i37 <= 1
 0 <= x8i38 <= 1
 0 <= x9i21 <= 1
 0 <= x9i22 <= 1
 0 <= x9i23 <= 1
 0 <= x9i24 <= 1
 0 <= x9i25 <= 1
 0 <= x9i26 <= 1
 0 <= x9i27 <= 1
 0 <= x9i28 <= 1
 0 <= x9i29 <= 1
 0 <= x9i30 <= 1
 0 <= x9i31 <= 1
 0 <= x9i32 <= 1
 0 <= x9i33 <= 1
 0 <= x9i34 <= 1
 0 <= x9i35 <= 1
 0 <= x9i36 <= 1
 0 <= x9i37 <= 1
 0 <= x9i38 <= 1
 0 <= x10i21 <= 1
 0 <= x10i22 <= 1
 0 <= x10i23 <= 1
 0 <= x10i24 <= 1
 0 <= x10i25 <= 1
 0 <= x10i26 <= 1
 0 <= x10i27 <= 1
 0 <= x10i28 <= 1
 0 <= x10i29 <= 1
 0 <= x10i30 <= 1
 0 <= x10i31 <= 1
 0 <= x10i32 <= 1
 0 <= x10i33 <= 1
 0 <= x10i34 <= 1
 0 <= x10i35 <= 1
 0 <= x10i36 <= 1
 0 <= x10i37 <= 1
 0 <= x10i38 <= 1
 0 <= x11i21 <= 1
 0 <= x11i22 <= 1
 0 <= x11i23 <= 1
 0 <= x11i24 <= 1
 0 <= x11i25 <= 1
 0 <= x11i26 <= 1
 0 <= x11i27 <= 1
 0 <= x11i28 <= 1
 0 <= x11i29 <= 1
 0 <= x11i30 <= 1
 0 <= x11i31 <= 1
 0 <= x11i32 <= 1
 0 <= x11i33 <= 1
 0 <= x11i34 <= 1
 0 <= x11i35 <= 1
 0 <= x11i36 <= 1
 0 <= x11i37 <= 1
 0 <= x11i38 <= 1
 0 <= x12i21 <= 1
 0 <= x12i22 <= 1
 0 <= x12i23 <= 1
 0 <= x12i24 <= 1
 0 <= x12i25 <= 1
 0 <= x12i26 <= 1
 0 <= x12i27 <= 1
 0 <= x12i28 <= 1
 0 <= x12i29 <= 1
 0 <= x12i30 <= 1
 0 <= x12i31 <= 1
 0 <= x12i32 <= 1
 0 <= x12i33 <= 1
 0 <= x12i34 <= 1
 0 <= x12i35 <= 1
 0 <= x12i36 <= 1
 0 <= x12i37 <= 1
 0 <= x12i38 <= 1
 0 <= x13i21 <= 1
 0 <= x13i22 <= 1
 0 <= x13i23 <= 1
 0 <= x13i24 <= 1
 0 <= x13i25 <= 1
 0 <= x13i26 <= 1
 0 <= x13i27 <= 1
 0 <= x13i28 <= 1
 0 <= x13i29 <= 1
 0 <= x13i30 <= 1
 0 <= x13i31 <= 1
 0 <= x13i32 <= 1
 0 <= x13i33 <= 1
 0 <= x13i34 <= 1
 0 <= x13i35 <= 1
 0 <= x13i36 <= 1
 0 <= x13i37 <= 1
 0 <= x13i38 <= 1
 0 <= x14i21 <= 1
 0 <= x14i22 <= 1
 0 <= x14i23 <= 1
 0 <= x14i24 <= 1
 0 <= x14i25 <= 1
 0 <= x14i26 <= 1
 0 <= x14i27 <= 1
 0 <= x14i28 <= 1
 0 <= x14i29 <= 1
 0 <= x14i30 <= 1
 0 <= x14i31 <= 1
 0 <= x14i32 <= 1
 0 <= x14i33 <= 1
 0 <= x14i34 <= 1
 0 <= x14i35 <= 1
 0 <= x14i36 <= 1
 0 <= x14i37 <= 1
 0 <= x14i38 <= 1
 0 <= x15i21 <= 1
 0 <= x15i22 <= 1
 0 <= x15i23 <= 1
 0 <= x15i24 <= 1
 0 <= x15i25 <= 1
 0 <= x15i26 <= 1
 0 <= x15i27 <= 1
 0 <= x15i28 <= 1
 0 <= x15i29 <= 1
 0 <= x15i30 <= 1
 0 <= x15i31 <= 1
 0 <= x15i32 <= 1
 0 <= x15i33 <= 1
 0 <= x15i34 <= 1
 0 <= x15i35 <= 1
 0 <= x15i36 <= 1
 0 <= x15i37 <= 1
 0 <= x15i38 <= 1
 0 <= x16i21 <= 1
 0 <= x16i22 <= 1
 0 <= x16i23 <= 1
 0 <= x16i24 <= 1
 0 <= x16i25 <= 1
 0 <= x16i26 <= 1
 0 <= x16i27 <= 1
 0 <= x16i28 <= 1
 0 <= x16i29 <= 1
 0 <= x16i30 <= 1
 0 <= x16i31 <= 1
 0 <= x16i32 <= 1
 0 <= x16i33 <= 1
 0 <= x16i34 <= 1
 0 <= x16i35 <= 1
 0 <= x16i36 <= 1
 0 <= x16i37 <= 1
 0 <= x16i38 <= 1
 0 <= x17i21 <= 1
 0 <= x17i22 <= 1
 0 <= x17i23 <= 1
 0 <= x17i24 <= 1
 0 <= x17i25 <= 1
 0 <= x17i26 <= 1
 0 <= x17i27 <= 1
 0 <= x17i28 <= 1
 0 <= x17i29 <= 1
 0 <= x17i30 <= 1
 0 <= x17i31 <= 1
 0 <= x17i32 <= 1
 0 <= x17i33 <= 1
 0 <= x17i34 <= 1
 0 <= x17i35 <= 1
 0 <= x17i36 <= 1
 0 <= x17i37 <= 1
 0 <= x17i38 <= 1
 0 <= x18i21 <= 1
 0 <= x18i22 <= 1
 0 <= x18i23 <= 1
 0 <= x18i24 <= 1
 0 <= x18i25 <= 1
 0 <= x18i26 <= 1
 0 <= x18i27 <= 1
 0 <= x18i28 <= 1
 0 <= x18i29 <= 1
 0 <= x18i30 <= 1
 0 <= x18i31 <= 1
 0 <= x18i32 <= 1
 0 <= x18i33 <= 1
 0 <= x18i34 <= 1
 0 <= x18i35 <= 1
 0 <= x18i36 <= 1
 0 <= x18i37 <= 1
 0 <= x18i38 <= 1
 0 <= x19i21 <= 1
 0 <= x19i22 <= 1
 0 <= x19i23 <= 1
 0 <= x19i24 <= 1
 0 <= x19i25 <= 1
 0 <= x19i26 <= 1
 0 <= x19i27 <= 1
 0 <= x19i28 <= 1
 0 <= x19i29 <= 1
 0 <= x19i30 <= 1
 0 <= x19i31 <= 1
 0 <= x19i32 <= 1
 0 <= x19i33 <= 1
 0 <= x19i34 <= 1
 0 <= x19i35 <= 1
 0 <= x19i36 <= 1
 0 <= x19i37 <= 1
 0 <= x19i38 <= 1
 0 <= x20i21 <= 1
 0 <= x20i22 <= 1
 0 <= x20i23 <= 1
 0 <= x20i24 <= 1
 0 <= x20i25 <= 1
 0 <= x20i26 <= 1
 0 <= x20i27 <= 1
 0 <= x20i28 <= 1
 0 <= x20i29 <= 1
 0 <= x20i30 <= 1
 0 <= x20i31 <= 1
 0 <= x20i32 <= 1
 0 <= x20i33 <= 1
 0 <= x20i34 <= 1
 0 <= x20i35 <= 1
 0 <= x20i36 <= 1
 0 <= x20i37 <= 1
 0 <= x20i38 <= 1
 0 <= x21i22 <= 1
 0 <= x21i23 <= 1
 0 <= x21i24 <= 1
 0 <= x21i25 <= 1
 0 <= x21i26 <= 1
 0 <= x21i27 <= 1
 0 <= x21i28 <= 1
 0 <= x21i29 <= 1
 0 <= x21i30 <= 1
 0 <= x21i31 <= 1
 0 <= x21i32 <= 1
 0 <= x21i33 <= 1
 0 <= x21i34 <= 1
 0 <= x21i35 <= 1
 0 <= x21i36 <= 1
 0 <= x21i37 <= 1
 0 <= x21i38 <= 1
 0 <= x22i23 <= 1
 0 <= x22i24 <= 1
 0 <= x22i25 <= 1
 0 <= x22i26 <= 1
 0 <= x22i27 <= 1
 0 <= x22i28 <= 1
 0 <= x22i29 <= 1
 0 <= x22i30 <= 1
 0 <= x22i31 <= 1
 0 <= x22i32 <= 1
 0 <= x22i33 <= 1
 0 <= x22i34 <= 1
 0 <= x22i35 <= 1
 0 <= x22i36 <= 1
 0 <= x22i37 <= 1
 0 <= x22i38 <= 1
 0 <= x23i24 <= 1
 0 <= x23i25 <= 1
 0 <= x23i26 <= 1
 0 <= x23i27 <= 1
 0 <= x23i28 <= 1
 0 <= x23i29 <= 1
 0 <= x23i30 <= 1
 0 <= x23i31 <= 1
 0 <= x23i32 <= 1
 0 <= x23i33 <= 1
 0 <= x23i34 <= 1
 0 <= x23i35 <= 1
 0 <= x23i36 <= 1
 0 <= x23i37 <= 1
 0 <= x23i38 <= 1
 0 <= x24i25 <= 1
 0 <= x24i26 <= 1
 0 <= x24i27 <= 1
 0 <= x24i28 <= 1
 0 <= x24i29 <= 1
 0 <= x24i30 <= 1
 0 <= x24i31 <= 1
 0 <= x24i32 <= 1
 0 <= x24i33 <= 1
 0 <= x24i34 <= 1
 0 <= x24i35 <= 1
 0 <= x24i36 <= 1
 0 <= x24i37 <= 1
 0 <= x24i38 <= 1
 0 <= x25i26 <= 1
 0 <= x25i27 <= 1
 0 <= x25i28 <= 1
 0 <= x25i29 <= 1
 0 <= x25i30 <= 1
 0 <= x25i31 <= 1
 0 <= x25i32 <= 1
 0 <= x25i33 <= 1
 0 <= x25i34 <= 1
 0 <= x25i35 <= 1
 0 <= x25i36 <= 1
 0 <= x25i37 <= 1
 0 <= x25i38 <= 1
 0 <= x26i27 <= 1
 0 <= x26i28 <= 1
 0 <= x26i29 <= 1
 0 <= x26i30 <= 1
 0 <= x26i31 <= 1
 0 <= x26i32 <= 1
 0 <= x26i33 <= 1
 0 <= x26i34 <= 1
 0 <= x26i35 <= 1
 0 <= x26i36 <= 1
 0 <= x26i37 <= 1
 0 <= x26i38 <= 1
 0 <= x27i28 <= 1
 0 <= x27i29 <= 1
 0 <= x27i30 <= 1
 0 <= x27i31 <= 1
 0 <= x27i32 <= 1
 0 <= x27i33 <= 1
 0 <= x27i34 <= 1
 0 <= x27i35 <= 1
 0 <= x27i36 <= 1
 0 <= x27i37 <= 1
 0 <= x27i38 <= 1
 0 <= x28i29 <= 1
 0 <= x28i30 <= 1
 0 <= x28i31 <= 1
 0 <= x28i32 <= 1
 0 <= x28i33 <= 1
 0 <= x28i34 <= 1
 0 <= x28i35 <= 1
 0 <= x28i36 <= 1
 0 <= x28i37 <= 1
 0 <= x28i38 <= 1
 0 <= x29i30 <= 1
 0 <= x29i31 <= 1
 0 <= x29i32 <= 1
 0 <= x29i33 <= 1
 0 <= x29i34 <= 1
 0 <= x29i35 <= 1
 0 <= x29i36 <= 1
 0 <= x29i37 <= 1
 0 <= x29i38 <= 1
 0 <= x30i31 <= 1
 0 <= x30i32 <= 1
 0 <= x30i33 <= 1
 0 <= x30i34 <= 1
 0 <= x30i35 <= 1
 0 <= x30i36 <= 1
 0 <= x30i37 <= 1
 0 <= x30i38 <= 1
 0 <= x31i32 <= 1
 0 <= x31i33 <= 1
 0 <= x31i34 <= 1
 0 <= x31i35 <= 1
 0 <= x31i36 <= 1
 0 <= x31i37 <= 1
 0 <= x31i38 <= 1
 0 <= x32i33 <= 1
 0 <= x32i34 <= 1
 0 <= x32i35 <= 1
 0 <= x32i36 <= 1
 0 <= x32i37 <= 1
 0 <= x32i38 <= 1
 0 <= x33i34 <= 1
 0 <= x33i35 <= 1
 0 <= x33i36 <= 1
 0 <= x33i37 <= 1
 0 <= x33i38 <= 1
 0 <= x34i35 <= 1
 0 <= x34i36 <= 1
 0 <= x34i37 <= 1
 0 <= x34i38 <= 1
 0 <= x35i36 <= 1
 0 <= x35i37 <= 1
 0 <= x35i38 <= 1
 0 <= x36i37 <= 1
 0 <= x36i38 <= 1
 0 <= x37i38 <= 1

Generals
 x1i21
 x1i22
 x1i23
 x1i24
 x1i25
 x1i26
 x1i27
 x1i28
 x1i29
 x1i30
 x1i31
 x1i32
 x1i33
 x1i34
 x1i35
 x1i36
 x1i37
 x1i38
 x2i21
 x2i22
 x2i23
 x2i24
 x2i25
 x2i26
 x2i27
 x2i28
 x2i29
 x2i30
 x2i31
 x2i32
 x2i33
 x2i34
 x2i35
 x2i36
 x2i37
 x2i38
 x3i21
 x3i22
 x3i23
 x3i24
 x3i25
 x3i26
 x3i27
 x3i28
 x3i29
 x3i30
 x3i31
 x3i32
 x3i33
 x3i34
 x3i35
 x3i36
 x3i37
 x3i38
 x4i21
 x4i22
 x4i23
 x4i24
 x4i25
 x4i26
 x4i27
 x4i28
 x4i29
 x4i30
 x4i31
 x4i32
 x4i33
 x4i34
 x4i35
 x4i36
 x4i37
 x4i38
 x5i21
 x5i22
 x5i23
 x5i24
 x5i25
 x5i26
 x5i27
 x5i28
 x5i29
 x5i30
 x5i31
 x5i32
 x5i33
 x5i34
 x5i35
 x5i36
 x5i37
 x5i38
 x6i21
 x6i22
 x6i23
 x6i24
 x6i25
 x6i26
 x6i27
 x6i28
 x6i29
 x6i30
 x6i31
 x6i32
 x6i33
 x6i34
 x6i35
 x6i36
 x6i37
 x6i38
 x7i21
 x7i22
 x7i23
 x7i24
 x7i25
 x7i26
 x7i27
 x7i28
 x7i29
 x7i30
 x7i31
 x7i32
 x7i33
 x7i34
 x7i35
 x7i36
 x7i37
 x7i38
 x8i21
 x8i22
 x8i23
 x8i24
 x8i25
 x8i26
 x8i27
 x8i28
 x8i29
 x8i30
 x8i31
 x8i32
 x8i33
 x8i34
 x8i35
 x8i36
 x8i37
 x8i38
 x9i21
 x9i22
 x9i23
 x9i24
 x9i25
 x9i26
 x9i27
 x9i28
 x9i29
 x9i30
 x9i31
 x9i32
 x9i33
 x9i34
 x9i35
 x9i36
 x9i37
 x9i38
 x10i21
 x10i22
 x10i23
 x10i24
 x10i25
 x10i26
 x10i27
 x10i28
 x10i29
 x10i30
 x10i31
 x10i32
 x10i33
 x10i34
 x10i35
 x10i36
 x10i37
 x10i38
 x11i21
 x11i22
 x11i23
 x11i24
 x11i25
 x11i26
 x11i27
 x11i28
 x11i29
 x11i30
 x11i31
 x11i32
 x11i33
 x11i34
 x11i35
 x11i36
 x11i37
 x11i38
 x12i21
 x12i22
 x12i23
 x12i24
 x12i25
 x12i26
 x12i27
 x12i28
 x12i29
 x12i30
 x12i31
 x12i32
 x12i33
 x12i34
 x12i35
 x12i36
 x12i37
 x12i38
 x13i21
 x13i22
 x13i23
 x13i24
 x13i25
 x13i26
 x13i27
 x13i28
 x13i29
 x13i30
 x13i31
 x13i32
 x13i33
 x13i34
 x13i35
 x13i36
 x13i37
 x13i38
 x14i21
 x14i22
 x14i23
 x14i24
 x14i25
 x14i26
 x14i27
 x14i28
 x14i29
 x14i30
 x14i31
 x14i32
 x14i33
 x14i34
 x14i35
 x14i36
 x14i37
 x14i38
 x15i21
 x15i22
 x15i23
 x15i24
 x15i25
 x15i26
 x15i27
 x15i28
 x15i29
 x15i30
 x15i31
 x15i32
 x15i33
 x15i34
 x15i35
 x15i36
 x15i37
 x15i38
 x16i21
 x16i22
 x16i23
 x16i24
 x16i25
 x16i26
 x16i27
 x16i28
 x16i29
 x16i30
 x16i31
 x16i32
 x16i33
 x16i34
 x16i35
 x16i36
 x16i37
 x16i38
 x17i21
 x17i22
 x17i23
 x17i24
 x17i25
 x17i26
 x17i27
 x17i28
 x17i29
 x17i30
 x17i31
 x17i32
 x17i33
 x17i34
 x17i35
 x17i36
 x17i37
 x17i38
 x18i21
 x18i22
 x18i23
 x18i24
 x18i25
 x18i26
 x18i27
 x18i28
 x18i29
 x18i30
 x18i31
 x18i32
 x18i33
 x18i34
 x18i35
 x18i36
 x18i37
 x18i38
 x19i21
 x19i22
 x19i23
 x19i24
 x19i25
 x19i26
 x19i27
 x19i28
 x19i29
 x19i30
 x19i31
 x19i32
 x19i33
 x19i34
 x19i35
 x19i36
 x19i37
 x19i38
 x20i21
 x20i22
 x20i23
 x20i24
 x20i25
 x20i26
 x20i27
 x20i28
 x20i29
 x20i30
 x20i31
 x20i32
 x20i33
 x20i34
 x20i35
 x20i36
 x20i37
 x20i38
 x21i22
 x21i23
 x21i24
 x21i25
 x21i26
 x21i27
 x21i28
 x21i29
 x21i30
 x21i31
 x21i32
 x21i33
 x21i34
 x21i35
 x21i36
 x21i37
 x21i38
 x22i23
 x22i24
 x22i25
 x22i26
 x22i27
 x22i28
 x22i29
 x22i30
 x22i31
 x22i32
 x22i33
 x22i34
 x22i35
 x22i36
 x22i37
 x22i38
 x23i24
 x23i25
 x23i26
 x23i27
 x23i28
 x23i29
 x23i30
 x23i31
 x23i32
 x23i33
 x23i34
 x23i35
 x23i36
 x23i37
 x23i38
 x24i25
 x24i26
 x24i27
 x24i28
 x24i29
 x24i30
 x24i31
 x24i32
 x24i33
 x24i34
 x24i35
 x24i36
 x24i37
 x24i38
 x25i26
 x25i27
 x25i28
 x25i29
 x25i30
 x25i31
 x25i32
 x25i33
 x25i34
 x25i35
 x25i36
 x25i37
 x25i38
 x26i27
 x26i28
 x26i29
 x26i30
 x26i31
 x26i32
 x26i33
 x26i34
 x26i35
 x26i36
 x26i37
 x26i38
 x27i28
 x27i29
 x27i30
 x27i31
 x27i32
 x27i33
 x27i34
 x27i35
 x27i36
 x27i37
 x27i38
 x28i29
 x28i30
 x28i31
 x28i32
 x28i33
 x28i34
 x28i35
 x28i36
 x28i37
 x28i38
 x29i30
 x29i31
 x29i32
 x29i33
 x29i34
 x29i35
 x29i36
 x29i37
 x29i38
 x30i31
 x30i32
 x30i33
 x30i34
 x30i35
 x30i36
 x30i37
 x30i38
 x31i32
 x31i33
 x31i34
 x31i35
 x31i36
 x31i37
 x31i38
 x32i33
 x32i34
 x32i35
 x32i36
 x32i37
 x32i38
 x33i34
 x33i35
 x33i36
 x33i37
 x33i38
 x34i35
 x34i36
 x34i37
 x34i38
 x35i36
 x35i37
 x35i38
 x36i37
 x36i38
 x37i38

End
